language ESSENCE' 1.0
$ Minion SolverNodes: 26
$ Minion SolverTotalTime: 0.000957
$ Minion SolverTimeOut: 0
$ Savile Row TotalTime: 0.37
letting result be [[0, 0, 0, 0;int(1..4)], 
[0, 0, 1, 0;int(1..4)], 
[1, 0, 0, 0;int(1..4)], 
[0, 0, 0, 1;int(1..4)];int(1..4)]
